NAME	simple_milp
ROWS
 N 	 OBJROW
 L	 R0 
 G   R1
COLUMNS
 X0	 OBJROW 	6	 R0 	2	 R1     1
 X1	 OBJROW 	4	 R0 	5	 R1     1
 X2	 OBJROW 	3	 R0 	-2	 R1     1
 X3	 OBJROW 	4	 R0     -2	 R1     1
 X4	 OBJROW 	5	 R0 	5	 R1     1
 X5	 OBJROW 	7	 R0 	5	 R1     1

RHS
 RHS	 R0 	 5.5
 RHS	 R1 	 1
BOUNDS
 UI BOUND	X0	 1e+30	
 UI BOUND	X1	 1e+30	
 UI BOUND	X2	 1e+30
 UP BOUND	X3	 1e+30	
 UP BOUND	X4	 1e+30	
 UP BOUND	X5	 1e+30	
ENDATA